succeed=True
[CUDA] cuda: usage: 5.74 GB
0 :  {link #0 : 1}, {link #1 : 2}, {link #2 : 3},
1 :  {link #0 : 2}, {link #1 : 3}, {link #2 : 0},
2 :  {link #0 : 3}, {link #1 : 0}, {link #2 : 1},
3 :  {link #0 : 0}, {link #1 : 1}, {link #2 : 2},
0 :  {link #0 : 1}, {link #1 : 2}, {link #2 : 3},
1 :  {link #0 : 2}, {link #1 : 3}, {link #2 : 0},
2 :  {link #0 : 3}, {link #1 : 0}, {link #2 : 1},
3 :  {link #0 : 0}, {link #1 : 1}, {link #2 : 2},
0 :  {link #0 : 1}, {link #1 : 2}, {link #2 : 3},
1 :  {link #0 : 2}, {link #1 : 3}, {link #2 : 0},
2 :  {link #0 : 3}, {link #1 : 0}, {link #2 : 1},
3 :  {link #0 : 0}, {link #1 : 1}, {link #2 : 2},
0 : local 80, cpu 0 {link #0 : g1 0}, {link #1 : g2 0}, {link #2 : g3 0},
1 : local 80, cpu 0 {link #0 : g2 0}, {link #1 : g3 0}, {link #2 : g0 0},
2 : local 80, cpu 0 {link #0 : g3 0}, {link #1 : g0 0}, {link #2 : g1 0},
3 : local 80, cpu 0 {link #0 : g0 0}, {link #1 : g1 0}, {link #2 : g2 0},
0 : local 80, cpu 0 {link #0 : g1 0}, {link #1 : g2 0}, {link #2 : g3 0},
1 : local 80, cpu 0 {link #0 : g2 0}, {link #1 : g3 0}, {link #2 : g0 0},
2 : local 80, cpu 0 {link #0 : g3 0}, {link #1 : g0 0}, {link #2 : g1 0},
3 : local 80, cpu 0 {link #0 : g0 0}, {link #1 : g1 0}, {link #2 : g2 0},
0 : local 80, cpu 0 {link #0 : g1 0}, {link #1 : g2 0}, {link #2 : g3 0},
1 : local 80, cpu 0 {link #0 : g2 0}, {link #1 : g3 0}, {link #2 : g0 0},
2 : local 80, cpu 0 {link #0 : g3 0}, {link #1 : g0 0}, {link #2 : g1 0},
3 : local 80, cpu 0 {link #0 : g0 0}, {link #1 : g1 0}, {link #2 : g2 0},
0 :  {link #0 : 1}, {link #1 : 2}, {link #2 : 3},
1 :  {link #0 : 2}, {link #1 : 3}, {link #2 : 0},
2 :  {link #0 : 3}, {link #1 : 0}, {link #2 : 1},
3 :  {link #0 : 0}, {link #1 : 1}, {link #2 : 2},
0 : local 80, cpu 0 {link #0 : g1 0}, {link #1 : g2 0}, {link #2 : g3 0},
1 : local 80, cpu 0 {link #0 : g2 0}, {link #1 : g3 0}, {link #2 : g0 0},
2 : local 80, cpu 0 {link #0 : g3 0}, {link #1 : g0 0}, {link #2 : g1 0},
3 : local 80, cpu 0 {link #0 : g0 0}, {link #1 : g1 0}, {link #2 : g2 0},
Set parameter WLSAccessID
Set parameter WLSSecret
Set parameter LicenseID
Set parameter TimeLimit to value 200
Set parameter MIPGap to value 0.05
Set parameter LogFile to value "cppsolver.log"
Set parameter Threads to value 40
Academic license - for non-commercial use only - registered to xiaoniu.sxn@sjtu.edu.cn
Gurobi Optimizer version 9.5.1 build v9.5.1rc2 (linux64)
Thread count: 40 physical cores, 80 logical processors, using up to 40 threads
Academic license - for non-commercial use only - registered to xiaoniu.sxn@sjtu.edu.cn
Optimize a model with 6680 rows, 2181 columns and 17944 nonzeros
Model fingerprint: 0xf434052c
Variable types: 5 continuous, 2176 integer (2176 binary)
Coefficient statistics:
  Matrix range     [2e-09, 6e+02]
  Objective range  [1e+00, 1e+00]
  Bounds range     [1e+00, 1e+00]
  RHS range        [2e-01, 1e+02]
Found heuristic solution: objective 2.000000e+09
Presolve removed 5140 rows and 549 columns
Presolve time: 0.02s
Presolved: 1540 rows, 1632 columns, 4608 nonzeros
Found heuristic solution: objective 5997.3296909
Variable types: 0 continuous, 1632 integer (1632 binary)

Root relaxation: objective 5.164913e+03, 1260 iterations, 0.01 seconds (0.00 work units)

    Nodes    |    Current Node    |     Objective Bounds      |     Work
 Expl Unexpl |  Obj  Depth IntInf | Incumbent    BestBd   Gap | It/Node Time

     0     0 5164.91259    0   29 5997.32969 5164.91259  13.9%     -    0s
H    0     0                    5390.0998931 5164.91259  4.18%     -    0s

Explored 1 nodes (1674 simplex iterations) in 0.04 seconds (0.03 work units)
Thread count was 40 (of 80 available processors)

Solution count 3: 5390.1 5997.33 2e+09 

Optimal solution found (tolerance 5.00e-02)
Best objective 5.390099893078e+03, best bound 5.164912594651e+03, gap 4.1778%
coll_cache:optimal_local_rate=0.054731,0.0498178,0.0534287,0.0582143,
coll_cache:optimal_remote_rate=0.116987,0.1219,0.118289,0.113504,
coll_cache:optimal_cpu_rate=0.828282,0.828282,0.828282,0.828282,
z=5390.1
test_result:init:feat_nbytes=375030526464
test_result:init:cache_nbytes=1125090816
test_result:init:feat_nbytes=375030526464
test_result:init:cache_nbytes=1125090816
test_result:init:feat_nbytes=375030526464
test_result:init:cache_nbytes=1125090816
test_result:init:feat_nbytes=375030526464
test_result:init:cache_nbytes=1125090816
    [Step(average) Profiler Level 1 E3 S999]
        L1  sample           0.001413 | send           0.000000
        L1  recv             0.000000 | copy           0.025604 | convert time 0.000000 | train  0.010695
        L1  feature nbytes  357.14 MB | label nbytes 0.00 Bytes
        L1  id nbytes      0.00 Bytes | graph nbytes 0.00 Bytes
        L1  miss nbytes    0.00 Bytes | remote nbytes 0.00 Bytes
        L1  num nodes               0 | num samples           0
        L1  seq duration     0.000000 | refresh duration   0.000000
    [Step(average) Profiler Level 2 E3 S999]
        L2  shuffle     0.000000 | core sample  0.000000 | id remap        0.000000
        L2  graph copy  0.000000 | id copy      0.000000 | cache feat copy 0.025604
        L2  last layer sample time 0.000000 | size 0.000000
    [Step(average) Profiler Level 3 E3 S999]
        L3  khop sample coo  0.000000 | khop sort coo      0.000000 | khop count edge     0.000000 | khop compact edge 0.000000
        L3  walk sample coo  0.000000 | walk topk total    0.000000 | walk topk step1     0.000000 | walk topk step2   0.000000
        L3  walk topk step3  0.000000 | walk topk step4    0.000000 | walk topk step5     0.000000
        L3  walk topk step6  0.000000 | walk topk step7    0.000000
        L3  remap unique     0.000000 | remap populate     0.000000 | remap mapnode       0.000000 | remap mapedge     0.000000
        L3  cache get_index  0.000203 | cache copy_index   0.000000 | cache extract_miss  0.000000
        L3  cache copy_miss  0.000000 | cache combine_miss 0.000000 | cache combine cache 0.025364 | cache combine remote 0.000000
        L3  label extract  0.000000
    [Profiler Level Percentiles E3 S999]
        p50.00_tail_logl2featcopy=0.026873
        p90.00_tail_logl2featcopy=0.027364
        p95.00_tail_logl2featcopy=0.027483
        p99.00_tail_logl2featcopy=0.027752
        p99.90_tail_logl2featcopy=0.029001
[CUDA] cuda: usage: 8.33 GB
config:eval_tsp="2023-04-14 18:38:41"
config:num_worker=4
config:num_intra_size=4
config:root_dir=/nvme/songxiaoniu/graph-learning/wholegraph
config:graph_name=mag240m-homo
config:epochs=4
config:batchsize=500
config:skip_epoch=2
config:local_step=250
config:presc_epoch=2
config:neighbors=10,25
config:hiddensize=256
config:num_layer=2
config:model=sage
config:framework=dgl
config:dataloaderworkers=0
config:dropout=0.5
config:lr=0.003
config:use_nccl=False
config:use_amp=True
config:use_collcache=True
config:cache_percentage=0.002
config:cache_policy=coll_cache_asymm_link
config:omp_thread_num=40
config:unsupervised=True
config:classnum=153
config:global_barrier=<multiprocessing.synchronize.Barrier object at 0x7fc9ea066460>
config:worker_id=0
creating_intra_node_communicator root=0, local_size=4, world_size=4
Rank=0, Graph loaded.
!!!!dist_homo_graph enumerate latency per epoch: 0.016014, per step: 0.000064
epoch=4 total_steps=1000
presamping
presamping takes 4.310672283172607
start training...
[Epoch 0], time=10.827276706695557, loss=0.6931472420692444
[Epoch 1], time=9.417587518692017, loss=0.6931472420692444
[Epoch 2], time=9.434215307235718, loss=0.6931472420692444
[Epoch 3], time=9.473312616348267, loss=0.6931472420692444
|===========================================================================|
|                  PyTorch CUDA memory summary, device ID 0                 |
|---------------------------------------------------------------------------|
|            CUDA OOMs: 0            |        cudaMalloc retries: 0         |
|===========================================================================|
|        Metric         | Cur Usage  | Peak Usage | Tot Alloc  | Tot Freed  |
|---------------------------------------------------------------------------|
| Allocated memory      |   33142 KB |  198452 KB |  517068 MB |  517036 MB |
|       from large pool |   20521 KB |  188872 KB |  490105 MB |  490085 MB |
|       from small pool |   12621 KB |   18535 KB |   26963 MB |   26951 MB |
|---------------------------------------------------------------------------|
| Active memory         |   33142 KB |  198452 KB |  517068 MB |  517036 MB |
|       from large pool |   20521 KB |  188872 KB |  490105 MB |  490085 MB |
|       from small pool |   12621 KB |   18535 KB |   26963 MB |   26951 MB |
|---------------------------------------------------------------------------|
| GPU reserved memory   |     846 MB |     846 MB |     846 MB |       0 B  |
|       from large pool |     824 MB |     824 MB |     824 MB |       0 B  |
|       from small pool |      22 MB |      22 MB |      22 MB |       0 B  |
|---------------------------------------------------------------------------|
| Non-releasable memory |   18058 KB |  413314 KB |  621982 MB |  621965 MB |
|       from large pool |   14295 KB |  410442 KB |  592763 MB |  592749 MB |
|       from small pool |    3763 KB |    8738 KB |   29219 MB |   29216 MB |
|---------------------------------------------------------------------------|
| Allocations           |      62    |      81    |  213835    |  213773    |
|       from large pool |      12    |      24    |   52706    |   52694    |
|       from small pool |      50    |      66    |  161129    |  161079    |
|---------------------------------------------------------------------------|
| Active allocs         |      62    |      81    |  213835    |  213773    |
|       from large pool |      12    |      24    |   52706    |   52694    |
|       from small pool |      50    |      66    |  161129    |  161079    |
|---------------------------------------------------------------------------|
| GPU reserved segments |      20    |      20    |      20    |       0    |
|       from large pool |       9    |       9    |       9    |       0    |
|       from small pool |      11    |      11    |      11    |       0    |
|---------------------------------------------------------------------------|
| Non-releasable allocs |      24    |      39    |   82605    |   82581    |
|       from large pool |       3    |      13    |   29362    |   29359    |
|       from small pool |      21    |      30    |   53243    |   53222    |
|---------------------------------------------------------------------------|
| Oversize allocations  |       0    |       0    |       0    |       0    |
|---------------------------------------------------------------------------|
| Oversize GPU segments |       0    |       0    |       0    |       0    |
|===========================================================================|

[TRAIN_TIME] train time is 39.153452 seconds
[EPOCH_TIME] 9.788363 seconds, maybe large due to not enough epoch skipped.
[EPOCH_TIME] 9.453894 seconds
Rank=3, Graph loaded.
!!!!dist_homo_graph enumerate latency per epoch: 0.008397, per step: 0.000034
presamping
presamping takes 3.8248138427734375
Rank=2, Graph loaded.
!!!!dist_homo_graph enumerate latency per epoch: 0.012338, per step: 0.000049
presamping
presamping takes 4.768296957015991
Rank=1, Graph loaded.
!!!!dist_homo_graph enumerate latency per epoch: 0.008162, per step: 0.000033
presamping
presamping takes 4.913673162460327

